(set-info :smt-lib-version 2.6)
(set-logic QF_S)
(set-info :source |
Generated by: Hongjian Jiang, Oliver Markgraf, Daniel Stan, Anthony W. Lin, Philipp Ruemmer
Generated on: 2025-04-11
Application: Using String Solvers to solve RMC problems encoded as CHC over Strings
Target solver: cvc5, OSTRICH, Z3, Z3alpha, Z3-noodler
Time limit: 60.0
Benchmarks are extracted by running HornStr https://arg-git.informatik.uni-kl.de/pub/string-chc-lib on all benchmarks
provided in the repository and gathering the string queries sent to the string solvers.
|)
(set-info :license "https://creativecommons.org/licenses/by/4.0/")
(set-info :category "industrial")
(declare-fun Y () String)
(assert (let ((a!1 (re.union (re.union (re.union (str.to_re "B") (str.to_re "E"))
                               (str.to_re "F"))
                     (str.to_re "A"))))
(let ((a!2 (re.* (re.union (re.union a!1 (str.to_re "C")) (str.to_re "D")))))
  (str.in_re Y a!2))))
(declare-fun X () String)
(declare-fun reg1 () String)
(declare-fun reg0 () String)
(assert (let ((a!1 (re.union (re.union (re.union (str.to_re "B") (str.to_re "A"))
                               (str.to_re "C"))
                     (str.to_re "D"))))
(let ((a!2 (re.* (re.union (re.union a!1 (str.to_re "E")) (str.to_re "F")))))
  (and true (= X reg1) (= Y reg1) (str.in_re reg0 a!2) (str.in_re reg1 a!2)))))
(push 1)
(assert (= X "ABB"))
(set-info :status unknown)
(check-sat)
(assert (distinct Y "ABB"))
(set-info :status unknown)
(check-sat)
(pop 1)
(push 1)
(assert (= X "AB"))
(set-info :status unknown)
(check-sat)
(assert (distinct Y "AB"))
(set-info :status unknown)
(check-sat)
(pop 1)
(push 1)
(assert (= X "ABBB"))
(set-info :status unknown)
(check-sat)
(assert (distinct Y "ABBB"))
(set-info :status unknown)
(check-sat)
(pop 1)
(set-info :status unknown)
(check-sat)
(exit)
